(set-info :smt-lib-version 2.6)
(set-logic QF_UFNIA)
(set-info :source |Benchmarks from the paper: "Extending Sledgehammer with SMT Solvers" by Jasmin Blanchette, Sascha Bohme, and Lawrence C. Paulson, CADE 2011.  Translated to SMT2 by Andrew Reynolds and Morgan Deters.|)
(set-info :category "industrial")
(set-info :status unsat)
(declare-sort S1 0)
(declare-fun f1 () S1)
(declare-fun f2 () S1)
(declare-fun f3 (Int) S1)
(declare-fun f4 () Int)
(declare-fun f5 () Int)
(assert (not (= f1 f2)))
(assert (not (= (f3 (+ (* 4 f4) 1)) f1)))
(assert (= (f3 (* (+ (* 4 f4) 1) f5)) f1))
(assert (= f5 1))
(check-sat)
(exit)
